38875
1 0 0 1 0 1 1 1 0 0 1 0 0 1 0 1 1 0 1 0 0 0 0 1 0 1 1 1 1 0 
18 6 16 27 5 6 15 27 18 28 26 28 13 13 28 18 3 10 27 0 18 16 5 0 10 18 27 28 26 5 6 26 26 16 27 6 10 13 16 16 18 26 6 26 13 6 13 16 28 10 0 16 0 16 13 6 25 26 18 25 26 0 7 10 13 25 5 28 28 25 18 6 6 26 23 23 10 23 13 16 10 0 26 25 26 13 6 5 27 7 28 6 25 25 0 3 28 6 0 28 28 15 25 18 26 0 6 27 27 3 26 26 27 6 25 13 28 7 0 13 26 25 28 6 26 16 5 25 26 0 28 16 25 10 23 10 3 3 28 10 6 27 28 25 25 5 16 15 27 25 27 0 23 0 13 28 5 15 3 13 13 27 10 0 5 27 5 26 3 15 5 10 28 10 26 5 0 10 26 10 5 15 0 28 25 13 28 23 0 16 5 16 6 6 7 6 7 15 10 28 
